21:16:00 | INFO    | Run started | run_id: SR_SV_WT_case2_P10_eps9999 | log file: C:\Users\Asus\Documents\GitHub\logistics-model2\internal-logistics-model2\results\SR_SV_WT\case2\SR_SV_WT_case2_P10_eps9999_2026_05_04_21_16.log
21:16:00 | INFO    | Products loaded | sheet=case2 | rows=10
21:16:00 | INFO    | Data loaded | |N|=26 |Nw|=25 |K|=1 |R|=1 |P|=10 | U=25
21:16:00 | INFO    | Big-M | time=491.0 precedence=480.0 wait=465.0 load_lb=20 load_ub=20
21:16:00 | INFO    | Set parameter Username
21:16:00 | INFO    | Set parameter LicenseID to value 2811848
21:16:00 | INFO    | Academic license - for non-commercial use only - expires 2027-04-22
21:16:00 | INFO    | Objective set | primary: min total_wait | tie-break weight on route_duration: 0.001
21:16:00 | INFO    | Constraint (3) added | route_duration <= 9999
21:16:00 | INFO    | Constraints (4)-(9) added | route structure
21:16:00 | INFO    | Constraints (10)-(12) added | product assignment
21:16:00 | INFO    | Constraints (13)-(15) added | route timing
21:16:00 | INFO    | Constraints (16) added | time consistency
21:16:00 | INFO    | Constraints (17)-(19) added | service times
21:16:00 | INFO    | Constraints (20)-(22) added | precedence, route closure, waiting
21:16:00 | INFO    | Constraints (23)-(27) added | load propagation
21:16:00 | INFO    | Constraints (28)-(32) added | MTZ and route ordering
21:16:00 | INFO    | Set parameter TimeLimit to value 600
21:16:00 | INFO    | Set parameter MIPGap to value 0.01
21:16:00 | INFO    | Set parameter Presolve to value 2
21:16:00 | INFO    | Set parameter LogFile to value "C:\Users\Asus\Documents\GitHub\logistics-model2\internal-logistics-model2\results\SR_SV_WT\case2\result_SR_SV_WT_case2_P10_eps9999_2026_05_04_21_16.log"
21:16:00 | INFO    | Solver configured | TimeLimit=600s | MIPGap=0.01 | gurobi_log=C:\Users\Asus\Documents\GitHub\logistics-model2\internal-logistics-model2\results\SR_SV_WT\case2\result_SR_SV_WT_case2_P10_eps9999_2026_05_04_21_16.log
21:16:00 | INFO    | Optimization starting...
21:16:00 | INFO    | Gurobi Optimizer version 12.0.0 build v12.0.0rc1 (win64 - Windows 10.0 (19045.2))
21:16:00 | INFO    | 
21:16:00 | INFO    | CPU model: 12th Gen Intel(R) Core(TM) i7-12650H, instruction set [SSE2|AVX|AVX2]
21:16:00 | INFO    | Thread count: 10 physical cores, 16 logical processors, using up to 16 threads
21:16:00 | INFO    | 
21:16:00 | INFO    | Non-default parameters:
21:16:00 | INFO    | TimeLimit  600
21:16:00 | INFO    | MIPGap  0.01
21:16:00 | INFO    | Presolve  2
21:16:00 | INFO    | 
21:16:00 | INFO    | Optimize a model with 2752 rows, 823 columns and 13940 nonzeros
21:16:00 | INFO    | Model fingerprint: 0x29a3aa38
21:16:00 | INFO    | Variable types: 138 continuous, 685 integer (660 binary)
21:16:00 | INFO    | Coefficient statistics:
21:16:00 | INFO    |   Matrix range     [1e+00, 5e+02]
21:16:00 | INFO    |   Objective range  [1e-03, 1e+00]
21:16:00 | INFO    |   Bounds range     [1e+00, 3e+01]
21:16:00 | INFO    |   RHS range        [1e+00, 1e+04]
21:16:00 | INFO    | Presolve removed 2187 rows and 637 columns
21:16:00 | INFO    | Presolve time: 0.01s
21:16:00 | INFO    | Presolved: 565 rows, 186 columns, 2603 nonzeros
21:16:00 | INFO    | Variable types: 41 continuous, 145 integer (133 binary)
21:16:00 | INFO    | Found heuristic solution: objective 821.1580000
21:16:00 | INFO    | Root relaxation presolve removed 34 rows and 1 columns
21:16:00 | INFO    | Root relaxation presolved: 531 rows, 187 columns, 2527 nonzeros
21:16:00 | INFO    | 
21:16:00 | INFO    | 
21:16:00 | INFO    | Root relaxation: objective 1.230000e+02, 121 iterations, 0.00 seconds (0.00 work units)
21:16:00 | INFO    | 
21:16:00 | INFO    |     Nodes    |    Current Node    |     Objective Bounds      |     Work
21:16:00 | INFO    |  Expl Unexpl |  Obj  Depth IntInf | Incumbent    BestBd   Gap | It/Node Time
21:16:00 | INFO    | 
21:16:00 | INFO    |      0     0  123.00000    0   15  821.15800  123.00000  85.0%     -    0s
21:16:00 | INFO    | H    0     0                     785.1530000  123.00000  84.3%     -    0s
21:16:00 | INFO    |      0     0  123.00000    0   21  785.15300  123.00000  84.3%     -    0s
21:16:00 | INFO    |      0     0  123.00000    0   33  785.15300  123.00000  84.3%     -    0s
21:16:00 | INFO    |      0     0  123.17112    0   28  785.15300  123.17112  84.3%     -    0s
21:16:00 | INFO    |      0     0  123.19491    0   37  785.15300  123.19491  84.3%     -    0s
21:16:00 | INFO    |      0     0  138.80875    0   46  785.15300  138.80875  82.3%     -    0s
21:16:00 | INFO    |      0     0  139.35701    0   47  785.15300  139.35701  82.3%     -    0s
21:16:00 | INFO    |      0     0  148.36844    0   50  785.15300  148.36844  81.1%     -    0s
21:16:00 | INFO    |      0     0  149.06575    0   56  785.15300  149.06575  81.0%     -    0s
21:16:00 | INFO    |      0     0  149.06575    0   57  785.15300  149.06575  81.0%     -    0s
21:16:00 | INFO    | H    0     0                     770.1500000  149.06575  80.6%     -    0s
21:16:00 | INFO    |      0     0  152.61621    0   51  770.15000  152.61621  80.2%     -    0s
21:16:00 | INFO    |      0     0  152.66651    0   57  770.15000  152.66651  80.2%     -    0s
21:16:00 | INFO    |      0     0  152.66917    0   60  770.15000  152.66917  80.2%     -    0s
21:16:00 | INFO    |      0     0  157.12532    0   56  770.15000  157.12532  79.6%     -    0s
21:16:00 | INFO    |      0     0  158.86817    0   53  770.15000  158.86817  79.4%     -    0s
21:16:00 | INFO    |      0     0  158.96682    0   59  770.15000  158.96682  79.4%     -    0s
21:16:00 | INFO    |      0     0  159.04744    0   59  770.15000  159.04744  79.3%     -    0s
21:16:00 | INFO    |      0     0  159.05241    0   59  770.15000  159.05241  79.3%     -    0s
21:16:00 | INFO    |      0     0  163.32908    0   53  770.15000  163.32908  78.8%     -    0s
21:16:00 | INFO    |      0     0  165.30553    0   60  770.15000  165.30553  78.5%     -    0s
21:16:00 | INFO    |      0     0  165.32807    0   61  770.15000  165.32807  78.5%     -    0s
21:16:00 | INFO    |      0     0  165.39886    0   62  770.15000  165.39886  78.5%     -    0s
21:16:00 | INFO    |      0     0  165.43729    0   62  770.15000  165.43729  78.5%     -    0s
21:16:00 | INFO    | H    0     0                     718.1470000  165.43729  77.0%     -    0s
21:16:00 | INFO    |      0     0  167.03754    0   59  718.14700  167.03754  76.7%     -    0s
21:16:00 | INFO    |      0     0  167.83237    0   57  718.14700  167.83237  76.6%     -    0s
21:16:00 | INFO    |      0     0  167.83237    0   58  718.14700  167.83237  76.6%     -    0s
21:16:00 | INFO    |      0     0  167.83237    0   60  718.14700  167.83237  76.6%     -    0s
21:16:00 | INFO    |      0     0  167.83237    0   60  718.14700  167.83237  76.6%     -    0s
21:16:00 | INFO    |      0     0  167.83237    0   58  718.14700  167.83237  76.6%     -    0s
21:16:00 | INFO    |      0     0  167.83237    0   57  718.14700  167.83237  76.6%     -    0s
21:16:00 | INFO    |      0     0  167.83237    0   57  718.14700  167.83237  76.6%     -    0s
21:16:01 | INFO    | H    0     0                     660.1400000  170.76255  74.1%     -    0s
21:16:01 | INFO    |      0     0  170.76255    0   48  660.14000  170.76255  74.1%     -    0s
21:16:01 | INFO    | H    0     0                     425.1170000  170.88671  59.8%     -    0s
21:16:01 | INFO    |      0     0  171.15034    0   50  425.11700  171.15034  59.7%     -    0s
21:16:01 | INFO    |      0     0  171.29024    0   55  425.11700  171.29024  59.7%     -    0s
21:16:01 | INFO    |      0     0  171.29236    0   57  425.11700  171.29236  59.7%     -    0s
21:16:01 | INFO    |      0     0  172.62544    0   51  425.11700  172.62544  59.4%     -    0s
21:16:01 | INFO    |      0     0  172.86053    0   52  425.11700  172.86053  59.3%     -    0s
21:16:01 | INFO    |      0     0  172.86053    0   53  425.11700  172.86053  59.3%     -    0s
21:16:01 | INFO    |      0     0  175.00874    0   53  425.11700  175.00874  58.8%     -    0s
21:16:01 | INFO    |      0     0  175.29104    0   53  425.11700  175.29104  58.8%     -    0s
21:16:01 | INFO    |      0     0  175.30475    0   52  425.11700  175.30475  58.8%     -    0s
21:16:01 | INFO    |      0     0  175.30475    0   53  425.11700  175.30475  58.8%     -    0s
21:16:01 | INFO    |      0     0  176.80025    0   54  425.11700  176.80025  58.4%     -    0s
21:16:01 | INFO    | H    0     0                     405.1140000  176.84612  56.3%     -    0s
21:16:01 | INFO    |      0     0  177.00429    0   58  405.11400  177.00429  56.3%     -    0s
21:16:01 | INFO    |      0     0  177.00524    0   60  405.11400  177.00524  56.3%     -    0s
21:16:01 | INFO    |      0     0  177.05639    0   60  405.11400  177.05639  56.3%     -    0s
21:16:01 | INFO    |      0     0  177.31401    0   56  405.11400  177.31401  56.2%     -    0s
21:16:01 | INFO    |      0     0  177.31401    0   56  405.11400  177.31401  56.2%     -    0s
21:16:01 | INFO    |      0     0  177.31401    0   57  405.11400  177.31401  56.2%     -    0s
21:16:01 | INFO    |      0     0  177.31994    0   56  405.11400  177.31994  56.2%     -    0s
21:16:01 | INFO    |      0     0  177.59972    0   59  405.11400  177.59972  56.2%     -    0s
21:16:01 | INFO    |      0     0  177.72491    0   52  405.11400  177.72491  56.1%     -    0s
21:16:01 | INFO    |      0     0  177.89641    0   58  405.11400  177.89641  56.1%     -    0s
21:16:01 | INFO    |      0     0  177.89725    0   59  405.11400  177.89725  56.1%     -    0s
21:16:01 | INFO    |      0     0  177.90137    0   55  405.11400  177.90137  56.1%     -    0s
21:16:01 | INFO    |      0     0  177.90578    0   58  405.11400  177.90578  56.1%     -    0s
21:16:01 | INFO    |      0     0  177.95107    0   60  405.11400  177.95107  56.1%     -    0s
21:16:01 | INFO    |      0     0  178.03858    0   58  405.11400  178.03858  56.1%     -    0s
21:16:01 | INFO    |      0     0  178.04038    0   59  405.11400  178.04038  56.1%     -    0s
21:16:01 | INFO    |      0     0  178.04474    0   59  405.11400  178.04474  56.1%     -    0s
21:16:01 | INFO    |      0     0  178.04541    0   58  405.11400  178.04541  56.1%     -    0s
21:16:01 | INFO    |      0     2  178.08443    0   58  405.11400  178.08443  56.0%     -    0s
21:16:01 | INFO    | H   26    69                     380.1140000  187.60839  50.6%  39.9    0s
21:16:01 | INFO    | H  122   169                     336.1030000  187.77743  44.1%  26.9    0s
21:16:02 | INFO    | * 3864  1353              29     326.1060000  210.33063  35.5%  20.8    1s
21:16:02 | INFO    | * 5252   867              29     322.1050000  231.52509  28.1%  22.9    1s
21:16:02 | INFO    | 
21:16:02 | INFO    | Cutting planes:
21:16:02 | INFO    |   Learned: 1
21:16:02 | INFO    |   Gomory: 4
21:16:02 | INFO    |   Cover: 14
21:16:02 | INFO    |   Implied bound: 65
21:16:02 | INFO    |   MIR: 96
21:16:02 | INFO    |   StrongCG: 2
21:16:02 | INFO    |   Flow cover: 93
21:16:02 | INFO    |   Inf proof: 2
21:16:02 | INFO    |   Zero half: 1
21:16:02 | INFO    |   RLT: 24
21:16:02 | INFO    |   Relax-and-lift: 26
21:16:02 | INFO    | 
21:16:02 | INFO    | Explored 6432 nodes (151090 simplex iterations) in 1.66 seconds (1.69 work units)
21:16:02 | INFO    | Thread count was 16 (of 16 available processors)
21:16:02 | INFO    | 
21:16:02 | INFO    | Solution count 10: 322.105 326.106 336.103 ... 785.153
21:16:02 | INFO    | 
21:16:02 | INFO    | Optimal solution found (tolerance 1.00e-02)
21:16:02 | INFO    | Best objective 3.221050000000e+02, best bound 3.221050000000e+02, gap 0.0000%
21:16:02 | INFO    | Solution found | total_wait=322.00 | route_duration=105.00
21:16:02 | INFO    | Objective=322.11 | runtime=1.67s | MIP Gap=0.00%
21:16:02 | INFO    | Generating Excel output | C:\Users\Asus\Documents\GitHub\logistics-model2\internal-logistics-model2\results\SR_SV_WT\case2\result_SR_SV_WT_case2_P10_eps9999_2026_05_04_21_16.xlsx
21:16:02 | INFO    | Excel output written | 12 sheets | C:\Users\Asus\Documents\GitHub\logistics-model2\internal-logistics-model2\results\SR_SV_WT\case2\result_SR_SV_WT_case2_P10_eps9999_2026_05_04_21_16.xlsx
21:16:02 | INFO    | Master Pareto updated | 21 total rows | C:\Users\Asus\Documents\GitHub\logistics-model2\internal-logistics-model2\results\master_pareto.xlsx
21:16:02 | INFO    | Run complete | run_id=SR_SV_WT_case2_P10_eps9999
